JulietBench/Juliet_Based_Patch_Bench/qemu/CWE-189-Numeric-Errors/CVE_2013_4148_71f7fe48e10a8437c9d42d859389f37157f59980/ResultcveSnippet_patch1EQ.smt2
; benchmark generated from python API
(set-info :status unknown)
(declare-fun rdi () (_ BitVec 64))
(declare-fun R () (_ BitVec 32))
(assert
 (let ((?x6 ((_ extract 31 0) rdi)))
 (let (($x71 (= R ?x6)))
 (let (($x52 (bvule ?x6 (_ bv64 32))))
 (let (($x75 (and $x52 $x71)))
 (let (($x69 (= (_ bv0 32) R)))
 (let (($x65 (bvugt ?x6 (_ bv64 32))))
 (let (($x74 (and $x65 $x69)))
 (let (($x76 (or $x74 $x75)))
 (let (($x11 (bvsge (_ bv64 32) ?x6)))
 (let (($x72 (and $x11 $x71)))
 (let (($x41 (bvslt (_ bv64 32) ?x6)))
 (let (($x70 (and $x41 $x69)))
 (let (($x73 (or $x70 $x72)))
 (and $x73 $x76)))))))))))))))
(check-sat)
